p edge 200 1534
n 1 23
n 2 114
n 3 150
n 4 64
n 5 173
n 6 180
n 7 102
n 8 20
n 9 139
n 10 138
n 11 108
n 12 72
n 13 62
n 14 143
n 15 100
n 16 87
n 17 85
n 18 119
n 19 125
n 20 33
n 21 161
n 22 194
n 23 69
n 24 162
n 25 16
n 26 118
n 27 178
n 28 174
n 29 112
n 30 187
n 31 25
n 32 172
n 33 79
n 34 154
n 35 12
n 36 1
n 37 165
n 38 120
n 39 5
n 40 4
n 41 94
n 42 158
n 43 75
n 44 167
n 45 189
n 46 163
n 47 137
n 48 46
n 49 56
n 50 91
n 51 171
n 52 145
n 53 124
n 54 9
n 55 38
n 56 117
n 57 65
n 58 70
n 59 58
n 60 45
n 61 19
n 62 29
n 63 190
n 64 31
n 65 111
n 66 28
n 67 107
n 68 59
n 69 8
n 70 188
n 71 183
n 72 164
n 73 142
n 74 15
n 75 140
n 76 63
n 77 182
n 78 37
n 79 200
n 80 18
n 81 2
n 82 179
n 83 127
n 84 67
n 85 130
n 86 105
n 87 106
n 88 146
n 89 95
n 90 147
n 91 129
n 92 110
n 93 199
n 94 82
n 95 49
n 96 123
n 97 148
n 98 77
n 99 76
n 100 26
n 101 149
n 102 43
n 103 34
n 104 134
n 105 153
n 106 7
n 107 104
n 108 88
n 109 84
n 110 51
n 111 21
n 112 74
n 113 10
n 114 169
n 115 41
n 116 93
n 117 40
n 118 14
n 119 128
n 120 181
n 121 176
n 122 131
n 123 168
n 124 151
n 125 96
n 126 159
n 127 57
n 128 47
n 129 109
n 130 101
n 131 184
n 132 80
n 133 48
n 134 170
n 135 60
n 136 97
n 137 66
n 138 44
n 139 83
n 140 68
n 141 89
n 142 144
n 143 141
n 144 71
n 145 92
n 146 103
n 147 61
n 148 152
n 149 90
n 150 6
n 151 133
n 152 155
n 153 32
n 154 36
n 155 115
n 156 192
n 157 135
n 158 191
n 159 42
n 160 17
n 161 132
n 162 35
n 163 99
n 164 193
n 165 126
n 166 55
n 167 78
n 168 54
n 169 166
n 170 53
n 171 116
n 172 113
n 173 160
n 174 30
n 175 81
n 176 50
n 177 86
n 178 157
n 179 175
n 180 52
n 181 98
n 182 197
n 183 186
n 184 122
n 185 196
n 186 121
n 187 3
n 188 13
n 189 24
n 190 73
n 191 136
n 192 198
n 193 22
n 194 27
n 195 177
n 196 185
n 197 39
n 198 11
n 199 156
n 200 195
e 1 32
e 1 51
e 1 68
e 1 104
e 1 125
e 1 134
e 1 135
e 1 136
e 1 147
e 1 151
e 1 157
e 1 181
e 1 189
e 1 193
e 2 3
e 2 30
e 2 40
e 2 45
e 2 70
e 2 81
e 2 98
e 2 99
e 2 115
e 2 117
e 2 124
e 2 148
e 2 155
e 2 167
e 2 172
e 2 187
e 2 197
e 3 29
e 3 30
e 3 43
e 3 55
e 3 70
e 3 81
e 3 98
e 3 99
e 3 101
e 3 117
e 3 124
e 3 172
e 3 183
e 3 187
e 3 197
e 4 7
e 4 9
e 4 10
e 4 15
e 4 28
e 4 47
e 4 57
e 4 66
e 4 76
e 4 100
e 4 121
e 4 130
e 4 179
e 4 194
e 5 13
e 5 15
e 5 28
e 5 31
e 5 32
e 5 47
e 5 76
e 5 100
e 5 147
e 5 157
e 5 163
e 5 181
e 5 189
e 5 191
e 6 14
e 6 20
e 6 23
e 6 58
e 6 64
e 6 67
e 6 73
e 6 82
e 6 86
e 6 87
e 6 120
e 6 140
e 6 142
e 6 153
e 7 9
e 7 10
e 7 57
e 7 62
e 7 66
e 7 75
e 7 121
e 7 130
e 7 137
e 7 146
e 7 179
e 7 194
e 7 195
e 8 41
e 8 44
e 8 49
e 8 59
e 8 61
e 8 85
e 8 89
e 8 111
e 8 114
e 8 116
e 8 122
e 8 123
e 8 127
e 8 161
e 9 10
e 9 57
e 9 62
e 9 66
e 9 75
e 9 121
e 9 130
e 9 137
e 9 146
e 9 179
e 9 194
e 9 195
e 10 15
e 10 28
e 10 47
e 10 57
e 10 66
e 10 76
e 10 100
e 10 121
e 10 130
e 10 179
e 10 194
e 11 12
e 11 20
e 11 52
e 11 58
e 11 67
e 11 71
e 11 77
e 11 88
e 11 103
e 11 120
e 11 129
e 11 142
e 11 144
e 11 162
e 12 52
e 12 71
e 12 77
e 12 88
e 12 90
e 12 92
e 12 103
e 12 129
e 12 131
e 12 144
e 12 154
e 12 162
e 12 190
e 13 15
e 13 28
e 13 31
e 13 32
e 13 47
e 13 76
e 13 100
e 13 147
e 13 157
e 13 163
e 13 181
e 13 189
e 13 191
e 14 20
e 14 23
e 14 58
e 14 64
e 14 67
e 14 73
e 14 82
e 14 86
e 14 87
e 14 120
e 14 140
e 14 142
e 14 153
e 15 28
e 15 31
e 15 47
e 15 76
e 15 100
e 15 130
e 15 163
e 15 179
e 15 191
e 15 194
e 16 19
e 16 21
e 16 24
e 16 35
e 16 53
e 16 93
e 16 95
e 16 96
e 16 108
e 16 110
e 16 118
e 16 173
e 16 176
e 16 177
e 16 182
e 16 188
e 16 192
e 17 35
e 17 42
e 17 95
e 17 96
e 17 109
e 17 113
e 17 126
e 17 128
e 17 133
e 17 173
e 17 177
e 17 182
e 17 184
e 17 185
e 17 186
e 17 198
e 17 200
e 18 22
e 18 26
e 18 38
e 18 48
e 18 54
e 18 60
e 18 69
e 18 94
e 18 106
e 18 138
e 18 139
e 18 152
e 18 156
e 18 164
e 18 175
e 18 178
e 18 199
e 19 21
e 19 24
e 19 46
e 19 53
e 19 74
e 19 79
e 19 93
e 19 108
e 19 110
e 19 118
e 19 141
e 19 165
e 19 176
e 19 180
e 19 188
e 19 192
e 20 23
e 20 52
e 20 58
e 20 67
e 20 77
e 20 87
e 20 103
e 20 120
e 20 142
e 20 144
e 20 153
e 21 24
e 21 35
e 21 53
e 21 93
e 21 95
e 21 96
e 21 108
e 21 110
e 21 118
e 21 173
e 21 176
e 21 177
e 21 182
e 21 188
e 21 192
e 22 38
e 22 42
e 22 48
e 22 54
e 22 60
e 22 69
e 22 94
e 22 109
e 22 113
e 22 128
e 22 139
e 22 164
e 22 178
e 22 186
e 22 199
e 22 200
e 23 58
e 23 64
e 23 67
e 23 73
e 23 82
e 23 86
e 23 87
e 23 120
e 23 140
e 23 142
e 23 153
e 24 46
e 24 53
e 24 74
e 24 79
e 24 93
e 24 108
e 24 110
e 24 118
e 24 141
e 24 165
e 24 176
e 24 180
e 24 188
e 24 192
e 25 36
e 25 37
e 25 46
e 25 50
e 25 72
e 25 74
e 25 79
e 25 83
e 25 119
e 25 141
e 25 149
e 25 160
e 25 165
e 25 168
e 25 170
e 25 180
e 26 34
e 26 56
e 26 60
e 26 69
e 26 94
e 26 102
e 26 106
e 26 132
e 26 138
e 26 150
e 26 152
e 26 156
e 26 158
e 26 164
e 26 175
e 26 199
e 27 62
e 27 64
e 27 73
e 27 75
e 27 82
e 27 84
e 27 86
e 27 107
e 27 137
e 27 140
e 27 143
e 27 146
e 27 174
e 27 195
e 28 31
e 28 47
e 28 76
e 28 100
e 28 130
e 28 163
e 28 179
e 28 191
e 28 194
e 29 30
e 29 43
e 29 55
e 29 65
e 29 78
e 29 81
e 29 97
e 29 99
e 29 101
e 29 112
e 29 172
e 29 183
e 29 196
e 29 197
e 30 43
e 30 55
e 30 70
e 30 81
e 30 98
e 30 99
e 30 101
e 30 117
e 30 124
e 30 172
e 30 183
e 30 187
e 30 197
e 31 32
e 31 47
e 31 76
e 31 100
e 31 147
e 31 157
e 31 163
e 31 181
e 31 189
e 31 191
e 32 51
e 32 104
e 32 135
e 32 136
e 32 147
e 32 157
e 32 163
e 32 181
e 32 189
e 32 191
e 33 34
e 33 39
e 33 40
e 33 45
e 33 56
e 33 63
e 33 102
e 33 105
e 33 115
e 33 132
e 33 148
e 33 150
e 33 155
e 33 158
e 33 159
e 33 167
e 33 171
e 34 39
e 34 56
e 34 63
e 34 102
e 34 105
e 34 106
e 34 132
e 34 138
e 34 150
e 34 152
e 34 156
e 34 158
e 34 159
e 34 171
e 34 175
e 35 53
e 35 95
e 35 96
e 35 126
e 35 133
e 35 173
e 35 176
e 35 177
e 35 182
e 35 184
e 35 185
e 35 188
e 35 192
e 35 198
e 36 37
e 36 46
e 36 50
e 36 72
e 36 74
e 36 79
e 36 83
e 36 119
e 36 141
e 36 149
e 36 160
e 36 165
e 36 168
e 36 170
e 36 180
e 37 50
e 37 72
e 37 80
e 37 83
e 37 91
e 37 119
e 37 145
e 37 149
e 37 160
e 37 166
e 37 168
e 37 169
e 37 170
e 38 42
e 38 48
e 38 54
e 38 60
e 38 69
e 38 94
e 38 109
e 38 113
e 38 128
e 38 139
e 38 164
e 38 178
e 38 186
e 38 199
e 38 200
e 39 40
e 39 45
e 39 56
e 39 63
e 39 102
e 39 105
e 39 115
e 39 132
e 39 148
e 39 150
e 39 155
e 39 158
e 39 159
e 39 167
e 39 171
e 40 45
e 40 63
e 40 70
e 40 98
e 40 105
e 40 115
e 40 117
e 40 124
e 40 148
e 40 155
e 40 159
e 40 167
e 40 171
e 40 187
e 41 44
e 41 49
e 41 59
e 41 61
e 41 85
e 41 89
e 41 111
e 41 114
e 41 116
e 41 122
e 41 123
e 41 127
e 41 161
e 42 48
e 42 54
e 42 109
e 42 113
e 42 126
e 42 128
e 42 133
e 42 139
e 42 178
e 42 184
e 42 185
e 42 186
e 42 198
e 42 200
e 43 55
e 43 65
e 43 78
e 43 81
e 43 97
e 43 99
e 43 101
e 43 112
e 43 172
e 43 183
e 43 196
e 43 197
e 44 49
e 44 61
e 44 80
e 44 85
e 44 91
e 44 116
e 44 122
e 44 123
e 44 127
e 44 145
e 44 166
e 44 169
e 45 63
e 45 70
e 45 98
e 45 105
e 45 115
e 45 117
e 45 124
e 45 148
e 45 155
e 45 159
e 45 167
e 45 171
e 45 187
e 46 72
e 46 74
e 46 79
e 46 83
e 46 93
e 46 108
e 46 110
e 46 118
e 46 141
e 46 149
e 46 165
e 46 170
e 46 180
e 47 76
e 47 100
e 47 130
e 47 163
e 47 179
e 47 191
e 47 194
e 48 54
e 48 60
e 48 69
e 48 94
e 48 109
e 48 113
e 48 128
e 48 139
e 48 164
e 48 178
e 48 186
e 48 199
e 48 200
e 49 61
e 49 80
e 49 85
e 49 91
e 49 116
e 49 122
e 49 123
e 49 127
e 49 145
e 49 166
e 49 169
e 50 72
e 50 80
e 50 83
e 50 91
e 50 119
e 50 145
e 50 149
e 50 160
e 50 166
e 50 168
e 50 169
e 50 170
e 51 68
e 51 104
e 51 125
e 51 134
e 51 135
e 51 136
e 51 147
e 51 151
e 51 157
e 51 181
e 51 189
e 51 193
e 52 58
e 52 67
e 52 71
e 52 77
e 52 88
e 52 103
e 52 120
e 52 129
e 52 142
e 52 144
e 52 162
e 53 93
e 53 95
e 53 96
e 53 108
e 53 110
e 53 118
e 53 173
e 53 176
e 53 177
e 53 182
e 53 188
e 53 192
e 54 60
e 54 69
e 54 94
e 54 109
e 54 113
e 54 128
e 54 139
e 54 164
e 54 178
e 54 186
e 54 199
e 54 200
e 55 65
e 55 78
e 55 81
e 55 97
e 55 99
e 55 101
e 55 112
e 55 172
e 55 183
e 55 196
e 55 197
e 56 63
e 56 102
e 56 105
e 56 106
e 56 132
e 56 138
e 56 150
e 56 152
e 56 156
e 56 158
e 56 159
e 56 171
e 56 175
e 57 62
e 57 66
e 57 75
e 57 121
e 57 130
e 57 137
e 57 146
e 57 179
e 57 194
e 57 195
e 58 67
e 58 77
e 58 87
e 58 103
e 58 120
e 58 142
e 58 144
e 58 153
e 59 68
e 59 89
e 59 111
e 59 114
e 59 122
e 59 123
e 59 125
e 59 127
e 59 134
e 59 151
e 59 161
e 59 193
e 60 69
e 60 94
e 60 106
e 60 138
e 60 139
e 60 152
e 60 156
e 60 164
e 60 175
e 60 178
e 60 199
e 61 80
e 61 85
e 61 91
e 61 116
e 61 122
e 61 123
e 61 127
e 61 145
e 61 166
e 61 169
e 62 66
e 62 75
e 62 84
e 62 107
e 62 121
e 62 137
e 62 143
e 62 146
e 62 174
e 62 195
e 63 102
e 63 105
e 63 115
e 63 132
e 63 148
e 63 150
e 63 155
e 63 158
e 63 159
e 63 167
e 63 171
e 64 73
e 64 82
e 64 84
e 64 86
e 64 87
e 64 107
e 64 140
e 64 143
e 64 153
e 64 174
e 65 78
e 65 90
e 65 92
e 65 97
e 65 101
e 65 112
e 65 131
e 65 154
e 65 183
e 65 190
e 65 196
e 66 75
e 66 121
e 66 130
e 66 137
e 66 146
e 66 179
e 66 194
e 66 195
e 67 77
e 67 87
e 67 103
e 67 120
e 67 142
e 67 144
e 67 153
e 68 89
e 68 104
e 68 111
e 68 114
e 68 125
e 68 134
e 68 135
e 68 136
e 68 151
e 68 161
e 68 193
e 69 94
e 69 106
e 69 138
e 69 139
e 69 152
e 69 156
e 69 164
e 69 175
e 69 178
e 69 199
e 70 81
e 70 98
e 70 99
e 70 115
e 70 117
e 70 124
e 70 148
e 70 155
e 70 167
e 70 172
e 70 187
e 70 197
e 71 77
e 71 88
e 71 90
e 71 92
e 71 103
e 71 129
e 71 131
e 71 144
e 71 154
e 71 162
e 71 190
e 72 74
e 72 79
e 72 83
e 72 119
e 72 141
e 72 149
e 72 160
e 72 165
e 72 168
e 72 170
e 72 180
e 73 82
e 73 84
e 73 86
e 73 87
e 73 107
e 73 140
e 73 143
e 73 153
e 73 174
e 74 79
e 74 83
e 74 93
e 74 108
e 74 110
e 74 118
e 74 141
e 74 149
e 74 165
e 74 170
e 74 180
e 75 84
e 75 107
e 75 121
e 75 137
e 75 143
e 75 146
e 75 174
e 75 195
e 76 100
e 76 130
e 76 163
e 76 179
e 76 191
e 76 194
e 77 88
e 77 103
e 77 120
e 77 129
e 77 142
e 77 144
e 77 162
e 78 90
e 78 92
e 78 97
e 78 101
e 78 112
e 78 131
e 78 154
e 78 183
e 78 190
e 78 196
e 79 83
e 79 93
e 79 108
e 79 110
e 79 118
e 79 141
e 79 149
e 79 165
e 79 170
e 79 180
e 80 85
e 80 91
e 80 116
e 80 119
e 80 145
e 80 160
e 80 166
e 80 168
e 80 169
e 81 98
e 81 99
e 81 101
e 81 117
e 81 124
e 81 172
e 81 183
e 81 187
e 81 197
e 82 84
e 82 86
e 82 87
e 82 107
e 82 140
e 82 143
e 82 153
e 82 174
e 83 119
e 83 141
e 83 149
e 83 160
e 83 165
e 83 168
e 83 170
e 83 180
e 84 86
e 84 107
e 84 137
e 84 140
e 84 143
e 84 146
e 84 174
e 84 195
e 85 91
e 85 116
e 85 122
e 85 123
e 85 127
e 85 145
e 85 166
e 85 169
e 86 87
e 86 107
e 86 140
e 86 143
e 86 153
e 86 174
e 87 120
e 87 140
e 87 142
e 87 153
e 88 90
e 88 92
e 88 103
e 88 129
e 88 131
e 88 144
e 88 154
e 88 162
e 88 190
e 89 111
e 89 114
e 89 122
e 89 123
e 89 125
e 89 127
e 89 134
e 89 151
e 89 161
e 89 193
e 90 92
e 90 97
e 90 112
e 90 129
e 90 131
e 90 154
e 90 162
e 90 190
e 90 196
e 91 116
e 91 119
e 91 145
e 91 160
e 91 166
e 91 168
e 91 169
e 92 97
e 92 112
e 92 129
e 92 131
e 92 154
e 92 162
e 92 190
e 92 196
e 93 108
e 93 110
e 93 118
e 93 141
e 93 165
e 93 176
e 93 180
e 93 188
e 93 192
e 94 106
e 94 138
e 94 139
e 94 152
e 94 156
e 94 164
e 94 175
e 94 178
e 94 199
e 95 96
e 95 126
e 95 133
e 95 173
e 95 176
e 95 177
e 95 182
e 95 184
e 95 185
e 95 188
e 95 192
e 95 198
e 96 126
e 96 133
e 96 173
e 96 176
e 96 177
e 96 182
e 96 184
e 96 185
e 96 188
e 96 192
e 96 198
e 97 101
e 97 112
e 97 131
e 97 154
e 97 183
e 97 190
e 97 196
e 98 99
e 98 115
e 98 117
e 98 124
e 98 148
e 98 155
e 98 167
e 98 172
e 98 187
e 98 197
e 99 101
e 99 117
e 99 124
e 99 172
e 99 183
e 99 187
e 99 197
e 100 130
e 100 163
e 100 179
e 100 191
e 100 194
e 101 112
e 101 172
e 101 183
e 101 196
e 101 197
e 102 105
e 102 106
e 102 132
e 102 138
e 102 150
e 102 152
e 102 156
e 102 158
e 102 159
e 102 171
e 102 175
e 103 120
e 103 129
e 103 142
e 103 144
e 103 162
e 104 125
e 104 134
e 104 135
e 104 136
e 104 147
e 104 151
e 104 157
e 104 181
e 104 189
e 104 193
e 105 115
e 105 132
e 105 148
e 105 150
e 105 155
e 105 158
e 105 159
e 105 167
e 105 171
e 106 132
e 106 138
e 106 150
e 106 152
e 106 156
e 106 158
e 106 164
e 106 175
e 106 199
e 107 137
e 107 140
e 107 143
e 107 146
e 107 174
e 107 195
e 108 110
e 108 118
e 108 141
e 108 165
e 108 176
e 108 180
e 108 188
e 108 192
e 109 113
e 109 126
e 109 128
e 109 133
e 109 139
e 109 178
e 109 184
e 109 185
e 109 186
e 109 198
e 109 200
e 110 118
e 110 141
e 110 165
e 110 176
e 110 180
e 110 188
e 110 192
e 111 114
e 111 122
e 111 123
e 111 125
e 111 127
e 111 134
e 111 151
e 111 161
e 111 193
e 112 131
e 112 154
e 112 183
e 112 190
e 112 196
e 113 126
e 113 128
e 113 133
e 113 139
e 113 178
e 113 184
e 113 185
e 113 186
e 113 198
e 113 200
e 114 122
e 114 123
e 114 125
e 114 127
e 114 134
e 114 151
e 114 161
e 114 193
e 115 117
e 115 124
e 115 148
e 115 155
e 115 159
e 115 167
e 115 171
e 115 187
e 116 122
e 116 123
e 116 127
e 116 145
e 116 166
e 116 169
e 117 124
e 117 148
e 117 155
e 117 167
e 117 172
e 117 187
e 117 197
e 118 141
e 118 165
e 118 176
e 118 180
e 118 188
e 118 192
e 119 145
e 119 149
e 119 160
e 119 166
e 119 168
e 119 169
e 119 170
e 120 142
e 120 144
e 120 153
e 121 130
e 121 137
e 121 146
e 121 179
e 121 194
e 121 195
e 122 123
e 122 127
e 122 161
e 123 127
e 123 161
e 124 148
e 124 155
e 124 167
e 124 172
e 124 187
e 124 197
e 125 134
e 125 135
e 125 136
e 125 151
e 125 161
e 125 193
e 126 128
e 126 133
e 126 173
e 126 177
e 126 182
e 126 184
e 126 185
e 126 186
e 126 198
e 126 200
e 127 161
e 128 133
e 128 139
e 128 178
e 128 184
e 128 185
e 128 186
e 128 198
e 128 200
e 129 131
e 129 144
e 129 154
e 129 162
e 129 190
e 130 179
e 130 194
e 131 154
e 131 162
e 131 190
e 131 196
e 132 138
e 132 150
e 132 152
e 132 156
e 132 158
e 132 159
e 132 171
e 132 175
e 133 173
e 133 177
e 133 182
e 133 184
e 133 185
e 133 186
e 133 198
e 133 200
e 134 135
e 134 136
e 134 151
e 134 161
e 134 193
e 135 136
e 135 147
e 135 151
e 135 157
e 135 181
e 135 189
e 135 193
e 136 147
e 136 151
e 136 157
e 136 181
e 136 189
e 136 193
e 137 143
e 137 146
e 137 174
e 137 195
e 138 150
e 138 152
e 138 156
e 138 158
e 138 164
e 138 175
e 138 199
e 139 164
e 139 178
e 139 186
e 139 199
e 139 200
e 140 143
e 140 153
e 140 174
e 141 149
e 141 165
e 141 170
e 141 180
e 142 144
e 142 153
e 143 146
e 143 174
e 143 195
e 144 162
e 145 160
e 145 166
e 145 168
e 145 169
e 146 174
e 146 195
e 147 157
e 147 163
e 147 181
e 147 189
e 147 191
e 148 155
e 148 159
e 148 167
e 148 171
e 148 187
e 149 160
e 149 165
e 149 168
e 149 170
e 149 180
e 150 152
e 150 156
e 150 158
e 150 159
e 150 171
e 150 175
e 151 161
e 151 193
e 152 156
e 152 158
e 152 164
e 152 175
e 152 199
e 154 162
e 154 190
e 154 196
e 155 159
e 155 167
e 155 171
e 155 187
e 156 158
e 156 164
e 156 175
e 156 199
e 157 163
e 157 181
e 157 189
e 157 191
e 158 159
e 158 171
e 158 175
e 159 167
e 159 171
e 160 166
e 160 168
e 160 169
e 160 170
e 161 193
e 162 190
e 163 181
e 163 189
e 163 191
e 164 175
e 164 178
e 164 199
e 165 170
e 165 180
e 166 168
e 166 169
e 167 171
e 167 187
e 168 169
e 168 170
e 170 180
e 172 183
e 172 187
e 172 197
e 173 176
e 173 177
e 173 182
e 173 184
e 173 185
e 173 188
e 173 192
e 173 198
e 174 195
e 175 199
e 176 177
e 176 182
e 176 188
e 176 192
e 177 182
e 177 184
e 177 185
e 177 188
e 177 192
e 177 198
e 178 186
e 178 199
e 178 200
e 179 194
e 181 189
e 181 191
e 182 184
e 182 185
e 182 188
e 182 192
e 182 198
e 183 196
e 183 197
e 184 185
e 184 186
e 184 198
e 184 200
e 185 186
e 185 198
e 185 200
e 186 198
e 186 200
e 187 197
e 188 192
e 189 191
e 190 196
e 198 200
